2591
500000
332139
332139
332139
332139
332139
332139
332139
332139
332139
332139
332139
331000
331000
331000
331000
331000
331000
331000
331000
331000
331000
331000
331000
331000
331000
331000
331000
331000
331000
331000
331000
330356
330356
330356
330356
330356
330356
330356
330356
330356
330356
330356
330356
330356
330356
330356
330010
330010
330010
330010
330010
330010
330010
330010
330010
330010
330010
326767
325769
325769
325769
325345
325345
325345
325345
325345
325345
325345
325345
325345
325345
325345
325345
325345
325345
325278
325278
325278
325278
325278
325278
325278
325278
325278
325278
325278
325278
325278
325278
325278
325278
325278
324635
324635
324635
324635
324635
324635
324635
324635
324635
324635
324635
324635
324635
324635
324635
324635
324635
324635
324268
324268
324268
324268
324268
323726
323726
323726
323726
323726
323726
323726
323726
323726
322957
322957
322957
322957
322957
322031
322031
322031
322031
322031
322031
322031
322031
322031
322031
322031
322031
322031
322031
322031
321765
321765
321765
321765
321765
321765
321765
321765
321765
321765
321765
321765
321765
321765
321765
321566
321566
321566
321566
321566
321566
321566
321566
321566
321566
319248
319248
319248
319248
319248
319248
319248
319248
319248
319248
319248
319248
319248
319248
319248
317548
317548
317548
317548
317548
317548
317548
317548
317548
316939
316939
316939
316939
316939
316939
316939
316939
316939
316939
315603
315603
315603
315603
315603
313094
313094
313094
313094
313094
313094
313094
313094
313094
313094
309874
308817
308817
308817
308817
308817
308817
308817
308817
308817
308817
308817
308817
308817
308817
308817
305582
304809
304809
304809
304809
304809
304809
304809
304809
304809
304809
304809
304809
304809
304809
304809
304809
304809
304809
304809
304809
299721
299721
299721
299721
299721
299721
298078
298078
298078
298078
298078
298078
298078
298078
296846
296846
296846
296846
296846
296846
296846
296846
296846
296846
296846
296846
296846
296846
296846
296381
296381
296381
296381
296381
296381
296381
296381
296381
296381
296381
296381
296381
296381
296381
296381
296381
296381
296381
294714
294714
294714
294714
294714
294714
294714
294714
294714
294714
294714
294714
294714
294714
294714
294714
294714
293904
293904
293904
293904
293904
293904
293904
293904
293904
293904
293904
293904
293904
293904
293904
293904
293904
293904
292973
292973
292973
292973
292973
292973
292973
292973
292973
292973
292973
292973
289633
289633
289633
289018
289018
289018
289018
289018
289018
289018
289018
289018
288830
286909
286909
286909
286909
286909
286909
286909
286909
286909
286909
286909
286909
286909
286909
286909
286909
286909
286909
286909
285054
285054
285054
285054
285054
285054
282604
282604
282604
282604
282604
282604
282604
282604
282604
281833
281833
281833
281833
281833
281682
281682
281682
281682
281682
281682
281682
281682
281682
281682
281682
281682
281682
281682
281682
281682
279967
279967
279967
279967
279967
279967
279967
279967
279967
279967
279967
279967
279967
279967
279967
279967
279967
279967
277271
277271
277271
277271
277271
277155
277155
277155
277155
277155
277155
277155
275951
275951
275951
275951
275951
275951
275951
275951
275951
275951
275951
273864
273864
273864
273864
273864
273864
273864
273864
273864
273864
273864
273864
273864
273864
272252
272252
272252
272252
272252
272252
272252
272252
272252
272252
272252
272252
272252
268331
268331
268331
268331
268331
268331
268331
268331
268331
268331
268331
268331
268331
268331
268331
268331
268331
268331
268115
268115
268115
268115
268115
268115
268115
268115
268115
268115
268115
268115
268115
268115
268115
268115
268115
268115
267098
267098
267098
267098
267098
267098
267098
267098
267098
267098
267098
267098
267098
267098
267098
267098
267098
264596
264596
264596
264596
264596
264596
264596
262821
262821
262821
262821
262821
262821
262821
259335
259335
259335
259335
259335
259335
259335
259335
259335
259335
259137
259137
259137
259137
259137
259137
259137
257519
257519
257519
257519
257519
257519
257519
257519
257519
257519
257288
257288
257288
257288
257288
257288
257288
257288
257288
257288
256925
256925
256925
256925
256925
256925
256925
256925
256925
256925
256925
256925
256925
256925
256202
256202
256202
256202
256202
256202
256202
256202
256202
255651
255651
252419
252419
252419
249499
249499
249499
249499
249499
249499
249499
249499
249499
249499
249499
249499
249499
249499
249499
249499
249499
249499
249045
249045
249045
249045
249045
249045
249045
249045
249045
249045
249045
249045
249045
249045
249045
249045
249045
249045
246063
246063
245272
241579
241579
241579
241579
241579
241579
241579
241579
241579
241579
241579
241579
241579
241579
241579
241579
241579
241579
241579
241436
241436
241436
241436
241436
240590
240590
240590
240590
240590
240590
240590
240590
240590
240590
240590
240590
240590
240590
240590
240590
240590
240590
240502
240502
240502
240502
240502
240502
240502
240502
240502
240502
240502
240502
240502
240502
240502
239763
239763
239763
239763
239763
239763
239763
239763
239763
239763
239763
239763
239763
239763
239763
239763
238858
238858
238858
238754
238754
238754
238754
236848
236848
236848
236848
236848
236848
236848
236848
236848
236848
236848
236848
236848
236848
236848
236099
236099
236099
236099
236099
236099
236099
236099
236099
236099
236099
236099
236099
236099
236099
235759
235759
235759
235759
235759
235759
235759
235759
235759
235759
235759
235759
235759
235759
235759
235759
234488
234488
234488
234488
233958
233958
233958
233958
233958
233958
233958
233594
233594
233594
233594
233594
233594
233594
233594
233594
231385
231385
231385
231385
231385
231385
231385
231385
231385
231385
231385
231385
231385
231385
231385
231385
231385
231385
231385
229655
229655
229655
229655
229655
229655
229655
229655
229655
229655
229655
229655
229655
229131
229131
229131
229131
229131
229131
229131
229131
228941
228941
228941
228941
228941
228941
228941
228941
228941
228941
228673
228673
228673
228673
228673
228673
228673
228673
228673
228673
228673
228673
228673
228673
228673
227921
227921
227921
227921
227921
227921
227921
227921
227081
227081
227081
227081
227081
227081
227081
227081
227081
227081
227081
227081
227081
227081
227081
227081
224893
224893
224893
224675
224675
224675
224675
224675
224675
224675
224675
224675
224675
224675
224675
224675
224675
224675
224675
224396
224396
224396
224396
224396
224396
224396
224396
221740
221740
221740
221740
221740
221740
221740
221740
221740
221740
221740
221740
221740
221740
221740
221740
221740
221721
221721
221721
221721
221721
221721
221721
221721
221721
221721
221554
221554
221554
221554
221554
221554
221554
218497
218497
218497
218497
218023
218023
218023
218023
218023
218023
218023
218023
218023
218023
218023
218023
218023
218023
218023
217631
217631
217631
217631
217631
217631
217631
217631
217631
217631
217631
217631
217631
217631
217631
217631
217631
214705
214705
214705
214705
214705
214705
214705
213926
213926
213926
213926
213926
213926
213926
213926
213926
213926
213926
213926
213926
213926
209773
209773
209773
209773
209773
209773
209773
209773
209773
209773
209773
209773
209773
209773
209773
209773
209773
209773
209403
209403
209403
209403
209403
208074
208074
208074
208074
208074
208074
208074
208074
208074
208074
206083
206083
206083
206083
206083
206083
205145
205145
205145
205145
205145
205145
205145
205145
205145
205145
200770
200770
200770
200770
200770
200770
200770
200770
200770
200770
200770
200770
200434
200434
200434
200434
200434
200434
200434
200434
200434
200177
200177
200177
200177
200177
200177
200177
200177
200177
200177
200177
200177
200177
200177
200177
200177
200177
199502
199502
199502
199502
199502
199502
199502
199502
199502
199502
199502
199502
199502
194529
194529
194529
194529
194529
194529
194529
194529
194529
194485
194485
194485
194485
194485
194485
194485
194485
194485
194485
194485
190963
190963
190963
190963
190963
190963
190963
190963
189599
189243
189243
189243
189243
189243
189243
189243
189243
189243
189243
189243
189243
189243
189243
189243
189243
189243
187000
187000
187000
187000
187000
187000
187000
187000
187000
187000
187000
187000
187000
186123
186123
186123
186123
186123
186123
183432
183432
183432
183432
183432
183432
183432
183432
183432
183432
183277
183277
183277
183277
183277
183277
183277
181966
181966
181966
181966
181966
181966
181966
181966
181966
181966
181966
181966
181966
180918
180918
180918
180918
180918
180918
180096
178850
178850
178850
178850
178850
178850
178850
178850
178850
175887
175887
175887
175887
175887
175887
175887
175887
175887
175887
175887
175887
175887
175887
175887
175887
175887
175887
175887
175887
174653
174653
174653
174653
174653
174653
174653
174653
174653
174653
174653
174653
174653
174653
174653
174653
174653
172530
172530
172530
172530
172530
172381
172381
172381
172381
172381
172381
172381
172381
172381
172381
172381
172381
172381
172381
172352
172352
172352
172352
172352
172352
172352
172352
172352
172352
172352
172352
172352
172352
172352
172352
172352
171998
171998
171998
171998
171998
171998
171998
171998
171998
171998
171998
171998
171998
171998
171998
171998
171998
171998
171998
170828
170828
170828
170828
168700
168700
168700
168700
168700
168700
168700
168700
168700
168700
168700
168700
168700
168700
168700
167760
167760
167760
167760
167760
167760
167760
167760
167760
167760
167760
167760
167760
167760
167760
167522
167522
167522
167522
167522
167522
167522
166407
166407
166407
166407
166407
166407
166407
166407
166407
166407
166407
166407
166407
166407
166407
166407
163581
163581
163581
163581
163581
163581
163581
163581
163581
163581
163213
163213
163213
163213
163213
163213
163213
163213
163213
163213
163213
163213
163213
163213
163213
163213
163213
163213
162509
162509
160631
160631
158813
158813
158813
158813
158813
158813
157983
157983
157983
157983
157508
157508
157508
157508
157508
157508
157508
157508
155657
155657
155657
155657
155657
155657
155657
155657
153602
153602
153602
153602
153602
153602
153602
151918
151918
151918
151918
151918
151918
151918
151918
151918
151918
151918
151918
151918
151918
151918
151918
151918
151752
151752
151752
151752
151752
151752
151752
151752
151752
151752
151752
150757
150757
150757
150757
150757
150757
150757
150757
150757
150757
150757
150757
150757
150757
150757
146052
146052
146052
146052
146052
146052
146052
146052
146052
146052
146052
146052
146052
146052
146052
146052
146052
145613
145613
145613
145613
145613
145613
145613
145613
145613
145613
145613
145613
145613
145613
145613
145613
145613
144526
144526
144526
144526
144526
144526
144526
144526
144526
144526
144526
144526
144526
144526
144526
144526
144526
144526
143237
143237
143237
143237
143237
143237
143237
143237
143237
143237
143237
143237
143237
143237
143237
143237
137727
137727
137727
137727
137727
137727
137727
137727
137727
137727
136255
136105
136105
136105
136105
136105
136105
136105
136105
136105
136105
136105
136105
135680
135680
135680
135680
135680
135680
135680
135680
135680
135680
135680
135680
135680
135680
135680
135680
135680
135680
134887
134887
134887
134887
134887
134887
134887
134887
134092
134092
134092
134092
134092
134092
130482
130482
130482
130482
130482
130482
130482
130482
130482
130482
130482
130482
130482
130482
130482
130482
130482
130482
130482
130482
124926
124926
124926
124926
124926
124926
124926
124926
124926
123874
123874
123874
123874
123874
123874
123874
123874
123874
123874
123874
123142
123142
123142
123142
123142
123142
123142
123142
123142
123142
123142
123142
123142
123142
121923
121923
121923
121923
121923
121923
121923
121923
121923
121923
119994
119994
119994
119994
119994
119994
119994
119994
119637
119637
119637
119637
119637
119637
119637
119637
119637
118514
118514
118514
118514
118514
118514
118514
118514
118514
118514
118514
118514
118514
118514
118514
118514
118514
118514
118152
118152
118152
118152
118152
118152
118152
118152
118152
118152
118152
118152
118152
118152
114155
114155
114155
114155
114155
114155
114155
114155
112515
112515
112515
112515
112515
112515
112515
112515
112515
112515
112515
112515
112515
112515
112515
112515
112515
112515
112515
112515
112425
112425
112425
112425
112425
112425
112425
112425
112425
112425
112425
112425
112425
112425
112425
112425
112425
112425
112425
112425
112161
112161
112161
112161
112161
112161
112161
112161
112161
112161
112161
112161
112161
112161
112161
112161
112161
112161
112161
111587
111587
111587
111587
111587
111587
111587
111587
110397
109867
109867
109867
109867
109867
109465
109465
109465
109465
109465
109465
109465
109465
109465
109465
109465
109465
109465
109465
109465
109465
109116
109116
109116
109116
109116
109116
109116
109116
109116
109116
109116
109116
105591
105591
105591
105591
105591
105591
105591
105591
105591
105591
105591
105591
104871
104871
104871
104871
102202
102202
102202
102202
102202
102202
101767
101767
101767
101593
101593
101593
101593
101593
101593
96916
96916
96916
96916
96916
96916
96916
96916
96916
96916
96916
96916
96766
96766
96766
96766
95611
95611
91376
91376
91376
91376
91376
91376
91376
91376
91376
91376
91376
91376
91376
91376
91376
91376
91376
90788
90788
90788
90788
90788
90788
90788
90788
90788
90788
90788
90788
90788
90788
90788
90568
90568
90568
90568
90568
90568
90568
90568
90376
90376
90376
90376
90376
87985
87985
87985
87985
87985
87985
87985
87985
87985
87985
87985
87756
87756
87756
87756
87756
87756
87756
87756
87756
87756
87756
87756
87756
87756
87756
86363
86363
86363
86363
86363
86363
86363
86046
86046
86046
86046
86046
86046
86046
86046
86046
86046
85685
85685
85685
85685
85685
85685
85685
85685
84931
84931
84931
84931
84413
84413
84413
84413
84413
84413
84413
84413
84413
84413
84413
84413
84413
84413
84413
84413
84413
82532
82532
82532
82532
82532
82532
82532
82532
82532
82532
82532
82532
82532
82532
82532
82532
82532
82532
81079
81079
81079
81079
81079
81079
81079
81079
80969
80969
80969
80969
80969
80969
80969
80969
80969
80969
80969
80969
80969
80969
80969
76665
76665
76665
76665
76665
76665
76665
76665
75186
75186
75186
75186
75186
75186
75186
75186
75186
75186
75186
75186
75186
75186
75186
75186
74606
74606
74606
74606
74606
74606
74606
74606
74606
74335
74335
74335
74335
74335
74335
74335
74335
74335
74335
74335
73919
73919
73919
73919
73919
73919
73919
73919
73181
73181
73181
73181
73181
73181
73181
73181
73181
73181
73181
73181
73181
73181
73181
73181
73181
73181
73181
72892
72892
72892
72892
72892
72892
72361
72361
72361
72361
72361
72361
72361
72361
72361
72361
72361
72361
72361
72291
72291
72291
72291
72291
72291
72291
72291
72291
72291
72291
72291
72291
72291
72291
72123
72123
72123
72123
72123
72123
72123
71848
71848
71848
71848
71848
71848
71848
71848
71848
71848
71848
71848
71848
71848
71848
71020
71020
67841
67841
67841
67841
67841
67841
67841
67841
67841
67841
67841
67841
67841
67841
67841
67841
67841
67841
67841
67841
67789
67789
67789
67789
67789
67789
67789
67789
67789
67789
67789
67789
67789
67789
67789
67789
67789
67789
65986
65986
65986
65986
65986
65986
65986
65986
65986
65986
65986
65986
65986
65986
64508
64508
64508
64508
64508
64508
64508
64508
64508
64508
64508
64508
64508
64508
64508
64508
64508
64508
63835
63835
63835
63835
63835
63835
63835
63585
63585
63585
63585
63585
63585
63585
63585
63585
63585
63585
60300
60300
59741
59741
59363
59363
59363
59363
59363
59363
59104
59104
59104
59104
59104
59104
59104
59104
57363
57363
57363
57363
57363
57363
57268
57268
56602
52652
52652
52652
52652
52652
52652
52204
52204
52204
52204
52204
52204
52204
52204
52204
52204
52204
51593
51593
51593
51593
51593
51593
48105
48105
48105
48105
48105
47190
47190
47190
47190
45875
45875
45760
45760
45760
45760
45760
45760
45760
45312
45312
45312
45312
45312
45312
45312
45312
39519
39519
39519
39519
39519
39519
39519
39519
39519
39519
38963
38963
38963
38963
38963
38963
38963
38963
38963
38963
38963
38963
38946
38946
38946
38717
38717
38717
38717
38717
38047
38047
38047
38047
38047
38047
38047
38047
38047
38047
38047
38047
38047
38047
38047
38047
38047
37988
37988
37988
37988
37988
37988
37988
37988
37988
37988
37988
37988
37988
37988
37988
37988
37988
35935
35935
35935
35935
35935
35935
35038
35038
35038
35038
33552
33552
28804
28804
28804
28804
28804
28804
28804
28804
28622
28622
28622
28622
28622
28614
28614
28614
28614
28614
28614
28614
28614
28541
28541
28541
28541
28541
28541
28541
28541
28541
28541
28541
28541
28541
28541
28541
28541
28541
27246
27246
27246
27246
27246
27246
27246
27246
27246
27246
27246
27246
27246
27246
26125
26125
26125
26125
26125
26093
26093
26093
26093
26093
26093
26093
26093
26093
26093
26093
26093
26093
26093
26093
26093
26093
26093
26093
26093
21486
21486
21486
21486
21486
21486
21486
18304
18304
18304
18304
18304
18303
18303
18303
18303
18303
18303
18303
18303
18303
18303
18303
15336
15336
15336
15336
15336
15336
15336
15336
15336
15336
15336
15336
15336
15336
15336
15336
13493
13493
13493
13493
13493
13493
13493
13493
13493
13493
13493
12298
12298
12298
12298
11991
11443
11443
11443
11443
11443
11443
11443
11443
11443
11443
11443
11443
8144
8144
8144
8144
8144
8144
8144
8107
8107
8107
8107
8107
8107
7129
7129
7129
7129
5971
5971
5971
5971
5971
5971
5971
5971
5971
5971
5971
5971
5971
5322
5322
5322
5322
5322
5322
5322
5322
5322
5322
5322
5322
5322
5322
5322
5322
5322
5322
